 
data_kes48 
 
_audit_creation_method            SHELXL-97 
_chemical_name_systematic 
; 
 ? 
; 
_chemical_name_common             ? 
_chemical_melting_point           ? 
_chemical_formula_moiety          'C26 H18 O2' 
_chemical_formula_sum 
 'C13 H9 O' 
_chemical_formula_weight          181.20 
 
loop_ 
 _atom_type_symbol 
 _atom_type_description 
 _atom_type_scat_dispersion_real 
 _atom_type_scat_dispersion_imag 
 _atom_type_scat_source 
 'C'  'C'   0.0033   0.0016 
 'International Tables Vol C Tables 4.2.6.8 and 6.1.1.4' 
 'H'  'H'   0.0000   0.0000 
 'International Tables Vol C Tables 4.2.6.8 and 6.1.1.4' 
 'O'  'O'   0.0106   0.0060 
 'International Tables Vol C Tables 4.2.6.8 and 6.1.1.4' 
 
_symmetry_cell_setting            Monoclinic 
_symmetry_space_group_name_H-M    P12(1)/c1 
 
loop_ 
 _symmetry_equiv_pos_as_xyz 
 'x, y, z' 
 '-x, y+1/2, -z+1/2' 
 '-x, -y, -z' 
 'x, -y-1/2, z-1/2' 
 
_cell_length_a                    20.4117(19) 
_cell_length_b                    7.2937(8) 
_cell_length_c                    6.2000(5) 
_cell_angle_alpha                 90.00 
_cell_angle_beta                  97.731(3) 
_cell_angle_gamma                 90.00 
_cell_volume                      914.65(15) 
_cell_formula_units_Z             4 
_cell_measurement_temperature     200(2) 
_cell_measurement_reflns_used     ? 
_cell_measurement_theta_min       ? 
_cell_measurement_theta_max       ? 
 
_exptl_crystal_description        ? 
_exptl_crystal_colour             ? 
_exptl_crystal_size_max           0.62 
_exptl_crystal_size_mid           0.60 
_exptl_crystal_size_min           0.01 
_exptl_crystal_density_meas       ? 
_exptl_crystal_density_diffrn     1.316 
_exptl_crystal_density_method     'not measured' 
_exptl_crystal_F_000              380 
_exptl_absorpt_coefficient_mu     0.082 
_exptl_absorpt_correction_type    ? 
_exptl_absorpt_correction_T_min   0.9509 
_exptl_absorpt_correction_T_max   0.9992 
_exptl_absorpt_process_details    ? 
 
_exptl_special_details 
; 
 ? 
; 
 
_diffrn_ambient_temperature       200(2) 
_diffrn_radiation_wavelength      0.71073 
_diffrn_radiation_type            MoK\a 
_diffrn_radiation_source          'fine-focus sealed tube' 
_diffrn_radiation_monochromator   graphite 
_diffrn_measurement_device_type   ? 
_diffrn_measurement_method        ? 
_diffrn_detector_area_resol_mean  ? 
_diffrn_reflns_number             15386 
_diffrn_reflns_av_R_equivalents   0.0404 
_diffrn_reflns_av_sigmaI/netI     0.0220 
_diffrn_reflns_limit_h_min        -24 
_diffrn_reflns_limit_h_max        24 
_diffrn_reflns_limit_k_min        -8 
_diffrn_reflns_limit_k_max        8 
_diffrn_reflns_limit_l_min        -7 
_diffrn_reflns_limit_l_max        7 
_diffrn_reflns_theta_min          1.01 
_diffrn_reflns_theta_max          25.09 
_reflns_number_total              1628 
_reflns_number_gt                 1264 
_reflns_threshold_expression      >2sigma(I) 
 
_computing_data_collection        ? 
_computing_cell_refinement        ? 
_computing_data_reduction         ? 
_computing_structure_solution     'SHELXS-97 (Sheldrick, 2008)' 
_computing_structure_refinement   'SHELXL-97 (Sheldrick, 2008)' 
_computing_molecular_graphics     ? 
_computing_publication_material   ? 
 
_refine_special_details 
; 
 Refinement of F^2^ against ALL reflections.  The weighted R-factor wR and 
 goodness of fit S are based on F^2^, conventional R-factors R are based 
 on F, with F set to zero for negative F^2^. The threshold expression of 
 F^2^ > 2sigma(F^2^) is used only for calculating R-factors(gt) etc. and is 
 not relevant to the choice of reflections for refinement.  R-factors based 
 on F^2^ are statistically about twice as large as those based on F, and R- 
 factors based on ALL data will be even larger. 
; 
 
_refine_ls_structure_factor_coef  Fsqd  
_refine_ls_matrix_type            full 
_refine_ls_weighting_scheme       calc  
_refine_ls_weighting_details 
 'calc w=1/[\s^2^(Fo^2^)+(0.1000P)^2^+0.0000P] where P=(Fo^2^+2Fc^2^)/3' 
_atom_sites_solution_primary      direct 
_atom_sites_solution_secondary    difmap 
_atom_sites_solution_hydrogens    geom 
_refine_ls_hydrogen_treatment     mixed 
_refine_ls_extinction_method      none 
_refine_ls_extinction_coef        ? 
_refine_ls_number_reflns          1628 
_refine_ls_number_parameters      127 
_refine_ls_number_restraints      0 
_refine_ls_R_factor_all           0.0593 
_refine_ls_R_factor_gt            0.0374 
_refine_ls_wR_factor_ref          0.1371 
_refine_ls_wR_factor_gt           0.1101 
_refine_ls_goodness_of_fit_ref    1.032 
_refine_ls_restrained_S_all       1.032 
_refine_ls_shift/su_max           0.529 
_refine_ls_shift/su_mean          0.140 
 
loop_ 
 _atom_site_label
 _atom_site_type_symbol 
 _atom_site_fract_x 
 _atom_site_fract_y 
 _atom_site_fract_z 
 _atom_site_U_iso_or_equiv 
 _atom_site_adp_type 
 _atom_site_occupancy 
 _atom_site_symmetry_multiplicity 
 _atom_site_calc_flag 
 _atom_site_refinement_flags 
 _atom_site_disorder_assembly 
 _atom_site_disorder_group 
O1 O 0.81903(5) 1.00978(15) 0.01366(16) 0.0272(3) Uani 1 1 d . . . 
C1 C 0.57390(8) 1.0162(3) -0.2380(3) 0.0378(5) Uani 1 1 d . . . 
H1 H 0.5308 1.0254 -0.3170 0.045 Uiso 1 1 calc R . . 
C2 C 0.62736(8) 1.0899(2) -0.3222(3) 0.0354(5) Uani 1 1 d . . . 
H4 H 0.6210 1.1488 -0.4601 0.042 Uiso 1 1 calc R . . 
C3 C 0.69011(8) 1.0785(2) -0.2066(2) 0.0303(4) Uani 1 1 d . . . 
H3 H 0.7266 1.1300 -0.2654 0.036 Uiso 1 1 calc R . . 
C4 C 0.70015(8) 0.9918(2) -0.0045(3) 0.0260(4) Uani 1 1 d . . . 
C5 C 0.76542(8) 0.9758(2) 0.1207(3) 0.0268(4) Uani 1 1 d . . . 
C6 C 0.87497(7) 0.9743(2) 0.1580(2) 0.0260(4) Uani 1 1 d . . . 
C7 C 0.93817(7) 0.9891(2) 0.0764(2) 0.0253(4) Uani 1 1 d . . . 
C8 C 0.99524(7) 0.9173(2) 0.1977(2) 0.0273(4) Uani 1 1 d . . . 
H6 H 0.9923 0.8602 0.3338 0.033 Uiso 1 1 calc R . . 
C9 C 0.94441(8) 1.0719(2) -0.1227(2) 0.0277(4) Uani 1 1 d . . . 
H9 H 0.9064 1.1216 -0.2079 0.033 Uiso 1 1 calc R . . 
C10 C 0.58337(8) 0.9286(2) -0.0375(3) 0.0359(5) Uani 1 1 d . . . 
H2 H 0.5467 0.8769 0.0201 0.043 Uiso 1 1 calc R . . 
C11 C 0.64559(8) 0.9165(2) 0.0780(3) 0.0320(4) Uani 1 1 d . . . 
H7 H 0.6516 0.8564 0.2152 0.038 Uiso 1 1 calc R . . 
C12 C 0.78715(8) 0.9240(2) 0.3279(3) 0.0313(4) Uani 1 1 d . . . 
H8 H 0.7604 0.8938 0.4369 0.038 Uiso 1 1 calc R . . 
C13 C 0.85696(8) 0.9232(2) 0.3518(3) 0.0318(4) Uani 1 1 d . . . 
H5 H 0.8859 0.8926 0.4799 0.038 Uiso 1 1 calc R . . 
 
loop_ 
 _atom_site_aniso_label 
 _atom_site_aniso_U_11 
 _atom_site_aniso_U_22 
 _atom_site_aniso_U_33 
 _atom_site_aniso_U_23 
 _atom_site_aniso_U_13 
 _atom_site_aniso_U_12 
O1 0.0262(6) 0.0277(7) 0.0278(6) 0.0037(4) 0.0036(5) 0.0005(4) 
C1 0.0316(10) 0.0389(11) 0.0413(11) -0.0048(8) -0.0004(8) 0.0053(7) 
C2 0.0401(10) 0.0342(10) 0.0315(9) 0.0027(7) 0.0033(7) 0.0042(8) 
C3 0.0336(10) 0.0267(10) 0.0322(9) 0.0009(7) 0.0098(7) 0.0002(7) 
C4 0.0287(9) 0.0208(9) 0.0294(9) -0.0027(6) 0.0067(7) 0.0041(6) 
C5 0.0290(9) 0.0214(8) 0.0312(9) 0.0001(6) 0.0089(7) 0.0002(6) 
C6 0.0275(9) 0.0209(8) 0.0278(9) -0.0006(6) -0.0022(7) 0.0009(6) 
C7 0.0277(9) 0.0191(8) 0.0279(9) -0.0024(6) -0.0007(7) -0.0020(6) 
C8 0.0317(9) 0.0230(9) 0.0264(8) 0.0019(6) 0.0015(7) -0.0014(7) 
C9 0.0284(9) 0.0250(9) 0.0276(8) -0.0002(7) -0.0036(7) 0.0007(7) 
C10 0.0292(9) 0.0364(11) 0.0439(10) 0.0009(8) 0.0119(8) 0.0006(7) 
C11 0.0334(9) 0.0301(10) 0.0340(9) 0.0035(7) 0.0096(7) 0.0031(7) 
C12 0.0359(10) 0.0299(10) 0.0297(9) 0.0018(7) 0.0101(7) 0.0010(7) 
C13 0.0367(10) 0.0299(10) 0.0278(8) 0.0014(7) 0.0010(7) 0.0013(7) 
 
_geom_special_details 
; 
 All esds (except the esd in the dihedral angle between two l.s. planes) 
 are estimated using the full covariance matrix.  The cell esds are taken 
 into account individually in the estimation of esds in distances, angles 
 and torsion angles; correlations between esds in cell parameters are only 
 used when they are defined by crystal symmetry.  An approximate (isotropic) 
 treatment of cell esds is used for estimating esds involving l.s. planes. 
; 
 
loop_ 
 _geom_bond_atom_site_label_1 
 _geom_bond_atom_site_label_2 
 _geom_bond_distance 
 _geom_bond_site_symmetry_2 
 _geom_bond_publ_flag 
O1 C5 1.3766(18) . ? 
O1 C6 1.3772(18) . ? 
C1 C2 1.380(2) . ? 
C1 C10 1.388(2) . ? 
C1 H1 0.9500 . ? 
C2 C3 1.383(2) . ? 
C2 H4 0.9500 . ? 
C3 C4 1.394(2) . ? 
C3 H3 0.9500 . ? 
C4 C11 1.399(2) . ? 
C4 C5 1.454(2) . ? 
C5 C12 1.355(2) . ? 
C6 C13 1.355(2) . ? 
C6 C7 1.451(2) . ? 
C7 C9 1.396(2) . ? 
C7 C8 1.400(2) . ? 
C8 C9 1.376(2) 3_775 ? 
C8 H6 0.9500 . ? 
C9 C8 1.376(2) 3_775 ? 
C9 H9 0.9500 . ? 
C10 C11 1.374(2) . ? 
C10 H2 0.9500 . ? 
C11 H7 0.9500 . ? 
C12 C13 1.413(2) . ? 
C12 H8 0.9500 . ? 
C13 H5 0.9500 . ? 
 
loop_ 
 _geom_angle_atom_site_label_1 
 _geom_angle_atom_site_label_2 
 _geom_angle_atom_site_label_3 
 _geom_angle 
 _geom_angle_site_symmetry_1 
 _geom_angle_site_symmetry_3 
 _geom_angle_publ_flag 
C5 O1 C6 107.23(11) . . ? 
C2 C1 C10 119.74(15) . . ? 
C2 C1 H1 120.1 . . ? 
C10 C1 H1 120.1 . . ? 
C1 C2 C3 120.30(16) . . ? 
C1 C2 H4 119.8 . . ? 
C3 C2 H4 119.9 . . ? 
C2 C3 C4 120.45(15) . . ? 
C2 C3 H3 119.8 . . ? 
C4 C3 H3 119.8 . . ? 
C3 C4 C11 118.61(15) . . ? 
C3 C4 C5 121.99(14) . . ? 
C11 C4 C5 119.40(14) . . ? 
C12 C5 O1 109.11(13) . . ? 
C12 C5 C4 133.49(14) . . ? 
O1 C5 C4 117.31(13) . . ? 
C13 C6 O1 109.12(13) . . ? 
C13 C6 C7 133.56(15) . . ? 
O1 C6 C7 117.25(13) . . ? 
C9 C7 C8 117.95(15) . . ? 
C9 C7 C6 122.09(14) . . ? 
C8 C7 C6 119.95(14) . . ? 
C9 C8 C7 120.98(14) 3_775 . ? 
C9 C8 H6 119.5 3_775 . ? 
C7 C8 H6 119.5 . . ? 
C8 C9 C7 121.06(15) 3_775 . ? 
C8 C9 H9 119.5 3_775 . ? 
C7 C9 H9 119.5 . . ? 
C11 C10 C1 120.27(15) . . ? 
C11 C10 H2 119.9 . . ? 
C1 C10 H2 119.9 . . ? 
C10 C11 C4 120.63(15) . . ? 
C10 C11 H7 119.7 . . ? 
C4 C11 H7 119.7 . . ? 
C5 C12 C13 107.30(14) . . ? 
C5 C12 H8 126.4 . . ? 
C13 C12 H8 126.3 . . ? 
C6 C13 C12 107.22(15) . . ? 
C6 C13 H5 126.4 . . ? 
C12 C13 H5 126.4 . . ? 
 
loop_ 
 _geom_torsion_atom_site_label_1 
 _geom_torsion_atom_site_label_2 
 _geom_torsion_atom_site_label_3 
 _geom_torsion_atom_site_label_4 
 _geom_torsion 
 _geom_torsion_site_symmetry_1 
 _geom_torsion_site_symmetry_2 
 _geom_torsion_site_symmetry_3 
 _geom_torsion_site_symmetry_4 
 _geom_torsion_publ_flag 
C10 C1 C2 C3 -0.6(3) . . . . ? 
C1 C2 C3 C4 0.3(2) . . . . ? 
C2 C3 C4 C11 0.2(2) . . . . ? 
C2 C3 C4 C5 179.51(14) . . . . ? 
C6 O1 C5 C12 1.20(17) . . . . ? 
C6 O1 C5 C4 -175.84(13) . . . . ? 
C3 C4 C5 C12 168.91(17) . . . . ? 
C11 C4 C5 C12 -11.8(3) . . . . ? 
C3 C4 C5 O1 -14.9(2) . . . . ? 
C11 C4 C5 O1 164.35(13) . . . . ? 
C5 O1 C6 C13 -1.28(17) . . . . ? 
C5 O1 C6 C7 176.03(12) . . . . ? 
C13 C6 C7 C9 -170.26(17) . . . . ? 
O1 C6 C7 C9 13.3(2) . . . . ? 
C13 C6 C7 C8 10.4(3) . . . . ? 
O1 C6 C7 C8 -166.09(13) . . . . ? 
C9 C7 C8 C9 0.0(2) . . . 3_775 ? 
C6 C7 C8 C9 179.37(13) . . . 3_775 ? 
C8 C7 C9 C8 0.0(2) . . . 3_775 ? 
C6 C7 C9 C8 -179.35(13) . . . 3_775 ? 
C2 C1 C10 C11 0.5(3) . . . . ? 
C1 C10 C11 C4 -0.1(2) . . . . ? 
C3 C4 C11 C10 -0.3(2) . . . . ? 
C5 C4 C11 C10 -179.63(14) . . . . ? 
O1 C5 C12 C13 -0.68(18) . . . . ? 
C4 C5 C12 C13 175.70(17) . . . . ? 
O1 C6 C13 C12 0.86(18) . . . . ? 
C7 C6 C13 C12 -175.83(16) . . . . ? 
C5 C12 C13 C6 -0.12(18) . . . . ? 
 
_diffrn_measured_fraction_theta_max    0.999 
_diffrn_reflns_theta_full              25.09 
_diffrn_measured_fraction_theta_full   0.999 
_refine_diff_density_max    0.171 
_refine_diff_density_min   -0.270 
_refine_diff_density_rms    0.058 
_atom_sites_special_details           
;
The structure was solved using Direct Methods (ShelXS). RE = 0.2, Nqual =  -1, Ralpha = 0.031
;